NAME : rd100
TYPE : OP
DIMENSION : 100
COST_LIMIT : 3955
ROUTE_NODES : 57
ROUTE_SCORE : 3359
ROUTE_COST : 3949
NODE_SEQUENCE_SECTION
1
60
8
69
90
51
83
65
81
5
61
11
57
47
99
79
6
94
98
66
76
59
95
77
93
28
37
56
46
50
73
54
38
72
17
92
27
10
33
78
20
74
26
32
4
82
21
49
13
67
97
86
63
15
87
62
18
-1
DEPOT_SECTION
1
-1
EOF
